p cnf 128 495
1 2 3 4 5 6 7 8 9 10 11 12 13 14 0
15 16 17 18 19 20 21 22 23 24 25 26 27 0
28 29 30 31 32 33 34 35 36 37 38 39 40 41 0
42 43 44 45 46 47 48 49 50 51 52 53 0
54 55 56 57 58 59 60 61 62 63 64 65 66 0
67 68 69 70 71 72 73 74 75 0
76 77 78 79 80 81 82 83 84 85 86 87 88 0
89 90 91 92 93 94 95 96 97 98 99 100 0
-1 -15 0
-1 -28 0
-1 -42 0
-1 -54 0
-1 -76 0
-1 -89 0
-1 -101 0
-1 -114 0
-15 -28 0
-15 -42 0
-15 -54 0
-15 -76 0
-15 -89 0
-15 -101 0
-15 -114 0
-28 -42 0
-28 -54 0
-28 -76 0
-28 -89 0
-28 -101 0
-28 -114 0
-42 -54 0
-42 -76 0
-42 -89 0
-42 -101 0
-42 -114 0
-54 -76 0
-54 -89 0
-54 -101 0
-54 -114 0
-76 -89 0
-76 -101 0
-76 -114 0
-89 -101 0
-89 -114 0
-101 -114 0
-2 -16 0
-2 -29 0
-2 -43 0
-2 -55 0
-2 -67 0
-2 -77 0
-2 -90 0
-2 -102 0
-2 -115 0
-16 -29 0
-16 -43 0
-16 -55 0
-16 -67 0
-16 -77 0
-16 -90 0
-16 -102 0
-16 -115 0
-29 -43 0
-29 -55 0
-29 -67 0
-29 -77 0
-29 -90 0
-29 -102 0
-29 -115 0
-43 -55 0
-43 -67 0
-43 -77 0
-43 -90 0
-43 -102 0
-43 -115 0
-55 -67 0
-55 -77 0
-55 -90 0
-55 -102 0
-55 -115 0
-67 -77 0
-67 -90 0
-67 -102 0
-67 -115 0
-77 -90 0
-77 -102 0
-77 -115 0
-90 -102 0
-90 -115 0
-102 -115 0
-3 -17 0
-3 -30 0
-3 -78 0
-3 -91 0
-3 -103 0
-3 -116 0
-17 -30 0
-17 -78 0
-17 -91 0
-17 -103 0
-17 -116 0
-30 -78 0
-30 -91 0
-30 -103 0
-30 -116 0
-78 -91 0
-78 -103 0
-78 -116 0
-91 -103 0
-91 -116 0
-103 -116 0
-4 -18 0
-4 -31 0
-4 -44 0
-4 -56 0
-4 -68 0
-4 -79 0
-4 -117 0
-18 -31 0
-18 -44 0
-18 -56 0
-18 -68 0
-18 -79 0
-18 -117 0
-31 -44 0
-31 -56 0
-31 -68 0
-31 -79 0
-31 -117 0
-44 -56 0
-44 -68 0
-44 -79 0
-44 -117 0
-56 -68 0
-56 -79 0
-56 -117 0
-68 -79 0
-68 -117 0
-79 -117 0
-5 -19 0
-5 -45 0
-5 -57 0
-5 -69 0
-5 -80 0
-5 -104 0
-5 -118 0
-19 -45 0
-19 -57 0
-19 -69 0
-19 -80 0
-19 -104 0
-19 -118 0
-45 -57 0
-45 -69 0
-45 -80 0
-45 -104 0
-45 -118 0
-57 -69 0
-57 -80 0
-57 -104 0
-57 -118 0
-69 -80 0
-69 -104 0
-69 -118 0
-80 -104 0
-80 -118 0
-104 -118 0
-6 -20 0
-6 -32 0
-6 -46 0
-6 -70 0
-6 -81 0
-6 -92 0
-6 -119 0
-20 -32 0
-20 -46 0
-20 -70 0
-20 -81 0
-20 -92 0
-20 -119 0
-32 -46 0
-32 -70 0
-32 -81 0
-32 -92 0
-32 -119 0
-46 -70 0
-46 -81 0
-46 -92 0
-46 -119 0
-70 -81 0
-70 -92 0
-70 -119 0
-81 -92 0
-81 -119 0
-92 -119 0
-7 -33 0
-7 -47 0
-7 -58 0
-7 -71 0
-7 -82 0
-7 -93 0
-7 -105 0
-7 -120 0
-33 -47 0
-33 -58 0
-33 -71 0
-33 -82 0
-33 -93 0
-33 -105 0
-33 -120 0
-47 -58 0
-47 -71 0
-47 -82 0
-47 -93 0
-47 -105 0
-47 -120 0
-58 -71 0
-58 -82 0
-58 -93 0
-58 -105 0
-58 -120 0
-71 -82 0
-71 -93 0
-71 -105 0
-71 -120 0
-82 -93 0
-82 -105 0
-82 -120 0
-93 -105 0
-93 -120 0
-105 -120 0
-8 -21 0
-8 -34 0
-8 -48 0
-8 -59 0
-8 -94 0
-8 -106 0
-8 -121 0
-21 -34 0
-21 -48 0
-21 -59 0
-21 -94 0
-21 -106 0
-21 -121 0
-34 -48 0
-34 -59 0
-34 -94 0
-34 -106 0
-34 -121 0
-48 -59 0
-48 -94 0
-48 -106 0
-48 -121 0
-59 -94 0
-59 -106 0
-59 -121 0
-94 -106 0
-94 -121 0
-106 -121 0
-9 -35 0
-9 -49 0
-9 -60 0
-9 -72 0
-9 -83 0
-9 -95 0
-9 -107 0
-9 -122 0
-35 -49 0
-35 -60 0
-35 -72 0
-35 -83 0
-35 -95 0
-35 -107 0
-35 -122 0
-49 -60 0
-49 -72 0
-49 -83 0
-49 -95 0
-49 -107 0
-49 -122 0
-60 -72 0
-60 -83 0
-60 -95 0
-60 -107 0
-60 -122 0
-72 -83 0
-72 -95 0
-72 -107 0
-72 -122 0
-83 -95 0
-83 -107 0
-83 -122 0
-95 -107 0
-95 -122 0
-107 -122 0
-10 -22 0
-10 -36 0
-10 -50 0
-10 -61 0
-10 -84 0
-10 -96 0
-10 -108 0
-10 -123 0
-22 -36 0
-22 -50 0
-22 -61 0
-22 -84 0
-22 -96 0
-22 -108 0
-22 -123 0
-36 -50 0
-36 -61 0
-36 -84 0
-36 -96 0
-36 -108 0
-36 -123 0
-50 -61 0
-50 -84 0
-50 -96 0
-50 -108 0
-50 -123 0
-61 -84 0
-61 -96 0
-61 -108 0
-61 -123 0
-84 -96 0
-84 -108 0
-84 -123 0
-96 -108 0
-96 -123 0
-108 -123 0
-11 -23 0
-11 -37 0
-11 -62 0
-11 -73 0
-11 -85 0
-11 -97 0
-11 -109 0
-11 -124 0
-23 -37 0
-23 -62 0
-23 -73 0
-23 -85 0
-23 -97 0
-23 -109 0
-23 -124 0
-37 -62 0
-37 -73 0
-37 -85 0
-37 -97 0
-37 -109 0
-37 -124 0
-62 -73 0
-62 -85 0
-62 -97 0
-62 -109 0
-62 -124 0
-73 -85 0
-73 -97 0
-73 -109 0
-73 -124 0
-85 -97 0
-85 -109 0
-85 -124 0
-97 -109 0
-97 -124 0
-109 -124 0
-12 -24 0
-12 -38 0
-12 -51 0
-12 -63 0
-12 -86 0
-12 -110 0
-12 -125 0
-24 -38 0
-24 -51 0
-24 -63 0
-24 -86 0
-24 -110 0
-24 -125 0
-38 -51 0
-38 -63 0
-38 -86 0
-38 -110 0
-38 -125 0
-51 -63 0
-51 -86 0
-51 -110 0
-51 -125 0
-63 -86 0
-63 -110 0
-63 -125 0
-86 -110 0
-86 -125 0
-110 -125 0
-13 -25 0
-13 -39 0
-13 -52 0
-13 -64 0
-13 -74 0
-13 -87 0
-13 -98 0
-13 -111 0
-13 -126 0
-25 -39 0
-25 -52 0
-25 -64 0
-25 -74 0
-25 -87 0
-25 -98 0
-25 -111 0
-25 -126 0
-39 -52 0
-39 -64 0
-39 -74 0
-39 -87 0
-39 -98 0
-39 -111 0
-39 -126 0
-52 -64 0
-52 -74 0
-52 -87 0
-52 -98 0
-52 -111 0
-52 -126 0
-64 -74 0
-64 -87 0
-64 -98 0
-64 -111 0
-64 -126 0
-74 -87 0
-74 -98 0
-74 -111 0
-74 -126 0
-87 -98 0
-87 -111 0
-87 -126 0
-98 -111 0
-98 -126 0
-111 -126 0
-14 -26 0
-14 -40 0
-14 -65 0
-14 -88 0
-14 -99 0
-14 -112 0
-14 -127 0
-26 -40 0
-26 -65 0
-26 -88 0
-26 -99 0
-26 -112 0
-26 -127 0
-40 -65 0
-40 -88 0
-40 -99 0
-40 -112 0
-40 -127 0
-65 -88 0
-65 -99 0
-65 -112 0
-65 -127 0
-88 -99 0
-88 -112 0
-88 -127 0
-99 -112 0
-99 -127 0
-112 -127 0
-27 -41 0
-27 -53 0
-27 -66 0
-27 -75 0
-27 -100 0
-27 -113 0
-27 -128 0
-41 -53 0
-41 -66 0
-41 -75 0
-41 -100 0
-41 -113 0
-41 -128 0
-53 -66 0
-53 -75 0
-53 -100 0
-53 -113 0
-53 -128 0
-66 -75 0
-66 -100 0
-66 -113 0
-66 -128 0
-75 -100 0
-75 -113 0
-75 -128 0
-100 -113 0
-100 -128 0
-113 -128 0
